p tw 58 448
0 1
0 2
0 3
0 4
0 5
0 6
0 7
0 8
0 24
0 28
0 29
0 30
0 31
0 32
0 33
0 34
0 9
0 15
0 53
0 54
0 55
0 56
0 20
0 27
0 42
0 48
1 2
1 3
1 4
1 5
1 6
1 7
1 8
1 11
1 26
1 28
1 33
1 36
1 48
2 3
2 4
2 5
2 6
2 7
2 8
2 13
2 15
2 29
2 37
2 42
2 45
3 4
3 5
3 6
3 7
3 8
3 9
3 15
3 30
3 53
3 54
3 55
3 56
3 11
3 26
3 28
3 33
3 36
3 48
4 5
4 6
4 7
4 8
4 9
4 18
4 19
4 20
4 21
4 22
4 23
5 6
5 7
5 8
5 10
5 22
5 35
5 36
5 37
5 38
5 39
5 40
5 13
5 15
5 29
5 42
5 45
6 7
6 8
6 11
6 26
6 28
6 33
6 36
6 48
7 8
7 15
7 24
7 31
7 36
7 46
7 49
7 57
8 22
8 23
8 24
8 25
8 35
8 41
8 42
8 43
8 17
8 18
8 21
8 44
8 45
8 46
8 47
8 20
8 27
8 30
8 48
9 10
9 11
9 12
9 13
9 14
9 15
9 16
9 17
9 18
9 19
9 20
9 21
9 22
9 23
9 24
9 25
9 26
9 27
9 30
9 53
9 54
9 55
9 56
10 11
10 12
10 13
10 14
10 15
10 16
10 17
10 22
10 35
10 36
10 37
10 38
10 39
10 40
11 12
11 13
11 14
11 15
11 16
11 17
11 26
11 28
11 33
11 36
11 48
12 13
12 14
12 15
12 16
12 17
13 14
13 15
13 16
13 17
13 29
13 37
13 42
13 45
14 15
14 16
14 17
14 27
14 40
14 41
14 43
14 46
14 50
14 51
14 52
15 16
15 17
15 30
15 53
15 54
15 55
15 56
15 24
15 31
15 36
15 46
15 49
15 57
15 29
15 37
15 42
15 45
16 17
16 23
16 27
16 30
16 37
16 47
16 48
16 49
17 18
17 21
17 35
17 44
17 45
17 46
17 47
18 19
18 20
18 21
18 22
18 23
18 35
18 44
18 45
18 46
18 47
19 20
19 21
19 22
19 23
20 21
20 22
20 23
20 24
20 25
20 26
20 27
20 30
20 42
20 48
21 22
21 23
21 35
21 44
21 45
21 46
21 47
22 23
22 35
22 36
22 37
22 38
22 39
22 40
22 24
22 25
22 41
22 42
22 43
23 24
23 25
23 35
23 41
23 42
23 43
23 27
23 30
23 37
23 47
23 48
23 49
24 25
24 26
24 27
24 28
24 29
24 30
24 31
24 32
24 33
24 34
24 35
24 41
24 42
24 43
24 48
24 36
24 46
24 49
24 57
25 26
25 27
25 35
25 41
25 42
25 43
26 27
26 28
26 33
26 36
26 48
27 30
27 37
27 47
27 48
27 49
27 40
27 41
27 43
27 46
27 50
27 51
27 52
27 42
28 29
28 30
28 31
28 32
28 33
28 34
28 36
28 48
29 30
29 31
29 32
29 33
29 34
29 37
29 42
29 45
30 31
30 32
30 33
30 34
30 37
30 47
30 48
30 49
30 53
30 54
30 55
30 56
30 42
31 32
31 33
31 34
31 36
31 46
31 49
31 57
32 33
32 34
33 34
33 36
33 48
35 36
35 37
35 38
35 39
35 40
35 41
35 42
35 43
35 44
35 45
35 46
35 47
36 37
36 38
36 39
36 40
36 48
36 46
36 49
36 57
37 38
37 39
37 40
37 47
37 48
37 49
37 42
37 45
38 39
38 40
39 40
40 41
40 43
40 46
40 50
40 51
40 52
41 42
41 43
41 46
41 50
41 51
41 52
42 43
42 48
42 45
43 46
43 50
43 51
43 52
44 45
44 46
44 47
45 46
45 47
46 47
46 50
46 51
46 52
46 49
46 57
47 48
47 49
48 49
49 57
50 51
50 52
51 52
53 54
53 55
53 56
54 55
54 56
55 56
